robust/generate/spp_dkp_Lefebvre_et_al_2026/src/shortest_path_7_8.kp
50
157

[2.28 1.05 1.18 1.83 1.74 4.6 1.88 3.56 3.51 1.43 1.6 1.62 0.67 4.49 4.2 2.59 1.45 4.1 3.11 1.81 2.34 2.42 4.29 2.64 3.09 0.24 1.51 0.26 0.83 4.28 4.33 3.3 3.38 2.13]

[88 86 100 35 74 76 79 36 76 78 50 1 89 14 60 36 89 79 14 15 12 19 43 11 76 47 96 10 5 15 45 28 65 86]
